80 8
169
1014
338
1352
507
169
676
169
1690
507
845
1014
169
338
1183
338
1352
676
845
1183
1521
1014
676
1521
1014
1521
845
1183
1521
845
1352
1352
1352
676
1352
1521
1183
338
1690
338
676
676
169
338
1352
1014
845
1521
169
338
338
1352
1690
676
1352
845
169
507
676
1183
1521
1352
1014
1352
1183
338
845
1521
676
338
169
338
507
1690
1014
507
338
1014
1352
1014
7287
9370
11159
4530
3770
14799
5142
15261
